32 32
27
3 3   18 26
3 4   13 6 
5 3   20 21
3 6   0 0 
7 3   7 20
8 3   8 27
3 9   10 22
10 3   8 17
11 3   8 17
3 12  0 10
3 13  0 9 
14 3   4 25
15 3   3 17
18 3   0 24
22 3   2 10
23 3   0 2 
24 3   2 23
25 3   7 10
27 3   5 0 
4 3   15 29
4 4   16 16
4 5   15 21
4 6   20 6 
7 4   20 5 
10 4   8 18
4 11  15 6 
18 4   14 13
